100
128
10
5
15
48
2
46
15
22
25
14
8
62
9
19
42
38
2
7
43
8
41
29
16
17
2
16
14
46
32
50
25
47
55
33
1
39
17
23
25
63
34
17
63
23
19
23
3
16
15
36
50
2
2
38
15
31
18
28
25
48
30
18
32
26
28
19
42
16
1
22
11
17
63
62
62
48
25
60
43
32
63
29
37
41
61
35
1
1
48
48
28
1
61
32
51
35
31
39
31
58